# Objective value = 1.0146958971243564e-01
err 1.0146958971243564e-01
f@b 0.9
s@a 0.9
s@b 3.8165022158818862e-01
info@b 0.9
GPS@b 7.8382169266655122e-01
comm@a 2.1979647225122084e-01
comm@b 0.9
q@a 4.5807700358119169e-01
1 1
